
Cover cuts applied:  82
Implied bound cuts applied:  4
Flow cuts applied:  30
Mixed integer rounding cuts applied:  14
Zero-half cuts applied:  12
Multi commodity flow cuts applied:  2
Lift and project cuts applied:  6
Gomory fractional cuts applied:  5

Root node processing (before b&c):
  Real time             =    0.07 sec. (28.88 ticks)
Parallel b&c, 4 threads:
  Real time             =    0.18 sec. (113.47 ticks)
  Sync time (average)   =    0.02 sec.
  Wait time (average)   =    0.00 sec.
                          ------------
Total (root+branch&cut) =    0.24 sec. (142.34 ticks)
Version identifier: 12.10.0.0 | 2019-11-26 | 843d4de
CPXPARAM_MIP_Interval                            10
CPXPARAM_MIP_Tolerances_AbsMIPGap                0.98999999999999999
Tried aggregator 2 times.
MIP Presolve eliminated 2460 rows and 1609 columns.
MIP Presolve modified 1 coefficients.
Aggregator did 50 substitutions.
Reduced MIP has 157 rows, 171 columns, and 560 nonzeros.
Reduced MIP has 75 binaries, 96 generals, 0 SOSs, and 0 indicators.
Presolve time = 0.00 sec. (2.74 ticks)
Probing fixed 0 vars, tightened 7 bounds.
Probing changed sense of 4 constraints.
Probing time = 0.00 sec. (0.03 ticks)
Tried aggregator 1 time.
Detecting symmetries...
MIP Presolve eliminated 7 rows and 6 columns.
MIP Presolve modified 9 coefficients.
Reduced MIP has 150 rows, 165 columns, and 535 nonzeros.
Reduced MIP has 71 binaries, 94 generals, 0 SOSs, and 0 indicators.
Presolve time = 0.00 sec. (0.41 ticks)
Probing time = 0.00 sec. (0.03 ticks)
MIP emphasis: balance optimality and feasibility.
MIP search method: dynamic search.
Parallel mode: deterministic, using up to 4 threads.
Root relaxation solution time = 0.00 sec. (1.02 ticks)

        Nodes                                         Cuts/
   Node  Left     Objective  IInf  Best Integer    Best Bound    ItCnt     Gap

      0     0       20.6667    33                     20.6667      166         
      0     0       20.4981    33                    Cuts: 54      213         
      0     0       20.1305    33                    Cuts: 85      271         
      0     0       20.0161    33                    Cuts: 52      305         
      0     0       19.9444    33                    Cuts: 66      352         
      0     0       19.8299    33                    Cuts: 45      396         
Detecting symmetries...
      0     0       19.7816    33                    Cuts: 33      431         
      0     0       19.7636    33                    Cuts: 41      460         
      0     0       19.7255    33                    Cuts: 41      514         
      0     0       19.6500    33                    Cuts: 41      542         
      0     0       19.6408    33                    Cuts: 33      576         
      0     0       19.6087    33                    Cuts: 30      601         
      0     0       19.5955    33                    Cuts: 45      629         
      0     0       19.5721    33                    Cuts: 31      663         
      0     0       19.4851    33                    Cuts: 58      696         
      0     0       19.4159    33                    Cuts: 47      722         
      0     0       19.3156    33                    Cuts: 17      757         
      0     0       19.2583    33                    Cuts: 22      787         
      0     0       19.2500    33                    Cuts: 30      811         
      0     0       19.2267    33                    Cuts: 18      841         
      0     0       19.1956    33                    Cuts: 39      869         
      0     0       19.1839    33                    Cuts: 26      883         
      0     0       19.1786    33                    Cuts: 19      895         
      0     0       19.1593    33                    Cuts: 28      913         
      0     0       19.1290    33                    Cuts: 32      944         
      0     0       19.1266    33                    Cuts: 32      981         
      0     0       19.1250    33                    Cuts: 32     1011         
*     0+    0                           13.0000       19.1250            47.12%
*     0+    0                           17.0000       19.1250            12.50%
Detecting symmetries...
      0     2       19.1250    78       17.0000       19.1250     1011   12.50%
Elapsed time = 0.12 sec. (68.74 ticks, tree = 0.02 MB, solutions = 2)
*     6+    1                           18.0000       19.1250             6.25%
     10     9       18.9167    33       18.0000       19.1250     1311    6.25%
     20     5    infeasible             18.0000       19.1250     1755    6.25%
     30     4        cutoff             18.0000       19.1250     1908    6.25%
the number of Nodes = 40
